RLT06
Position Depot: Center
Horizon for Depot: Large
Position of customers: Random
Distribution of the demand: Large
Width of time windows: Tight
Distribution of the service: Small

VEHICLE 
NUMBER 	 CAPACITY 
 12 	 	 236 
 
CUSTOMER
CUST NO. 	 XCOORD.  	 YCOORD. 	 DEMAND 	 READY TIME 	 DUE DATE 	 SERVICE TIME 
 0 	 	 500 	 	 500 	 	 0 	 	 0 	 	 4181 	 	 0 
  1 	 	 408 	 	 523 	 	 55 	 	 2145 	 	 2308 	 	 71 
  2 	 	 578 	 	 947 	 	 4 	 	 556 	 	 726 	 	 96 
  3 	 	 767 	 	 429 	 	 21 	 	 3481 	 	 3572 	 	 84 
  4 	 	 521 	 	 796 	 	 65 	 	 4079 	 	 4173 	 	 67 
  5 	 	 422 	 	 766 	 	 62 	 	 2270 	 	 2408 	 	 95 
  6 	 	 467 	 	 891 	 	 51 	 	 3022 	 	 3145 	 	 65 
  7 	 	 367 	 	 555 	 	 70 	 	 1788 	 	 1905 	 	 51 
  8 	 	 872 	 	 673 	 	 10 	 	 2081 	 	 2230 	 	 60 
  9 	 	 270 	 	 788 	 	 76 	 	 1979 	 	 2154 	 	 51 
  10 	 	 163 	 	 840 	 	 62 	 	 852 	 	 958 	 	 59 
  11 	 	 115 	 	 393 	 	 8 	 	 1379 	 	 1446 	 	 56 
  12 	 	 479 	 	 562 	 	 94 	 	 3808 	 	 3864 	 	 53 
  13 	 	 277 	 	 52 	 	 68 	 	 3817 	 	 3920 	 	 72 
  14 	 	 609 	 	 448 	 	 15 	 	 2709 	 	 2840 	 	 74 
  15 	 	 958 	 	 669 	 	 50 	 	 2340 	 	 2411 	 	 64 
  16 	 	 837 	 	 743 	 	 57 	 	 2783 	 	 2942 	 	 77 
  17 	 	 726 	 	 926 	 	 94 	 	 3470 	 	 3670 	 	 67 
  18 	 	 191 	 	 154 	 	 7 	 	 2636 	 	 2776 	 	 74 
  19 	 	 68 	 	 646 	 	 76 	 	 2505 	 	 2702 	 	 61 
  20 	 	 148 	 	 782 	 	 93 	 	 845 	 	 1031 	 	 63 
  21 	 	 488 	 	 969 	 	 91 	 	 1838 	 	 1979 	 	 89 
  22 	 	 540 	 	 933 	 	 81 	 	 1272 	 	 1374 	 	 69 
  23 	 	 175 	 	 869 	 	 96 	 	 1056 	 	 1208 	 	 77 
  24 	 	 500 	 	 359 	 	 91 	 	 186 	 	 372 	 	 54 
  25 	 	 24 	 	 376 	 	 32 	 	 1223 	 	 1327 	 	 75 
  26 	 	 454 	 	 522 	 	 76 	 	 2154 	 	 2313 	 	 88 
  27 	 	 879 	 	 346 	 	 62 	 	 2755 	 	 2825 	 	 87 
  28 	 	 625 	 	 56 	 	 100 	 	 1044 	 	 1236 	 	 97 
  29 	 	 481 	 	 970 	 	 23 	 	 718 	 	 770 	 	 54 
  30 	 	 24 	 	 187 	 	 36 	 	 1507 	 	 1674 	 	 75 
  31 	 	 730 	 	 554 	 	 66 	 	 2163 	 	 2280 	 	 85 
  32 	 	 393 	 	 889 	 	 14 	 	 3154 	 	 3322 	 	 65 
  33 	 	 72 	 	 744 	 	 94 	 	 2519 	 	 2603 	 	 93 
  34 	 	 618 	 	 27 	 	 81 	 	 3069 	 	 3133 	 	 68 
  35 	 	 353 	 	 789 	 	 85 	 	 194 	 	 356 	 	 70 
  36 	 	 598 	 	 10 	 	 98 	 	 2511 	 	 2661 	 	 94 
  37 	 	 967 	 	 777 	 	 94 	 	 398 	 	 597 	 	 93 
  38 	 	 457 	 	 874 	 	 88 	 	 718 	 	 876 	 	 75 
  39 	 	 753 	 	 126 	 	 73 	 	 444 	 	 496 	 	 99 
  40 	 	 570 	 	 609 	 	 53 	 	 2805 	 	 2899 	 	 75 
  41 	 	 752 	 	 41 	 	 19 	 	 2247 	 	 2429 	 	 94 
  42 	 	 627 	 	 420 	 	 83 	 	 1263 	 	 1458 	 	 80 
  43 	 	 740 	 	 300 	 	 75 	 	 2070 	 	 2128 	 	 99 
  44 	 	 903 	 	 400 	 	 70 	 	 3331 	 	 3418 	 	 70 
  45 	 	 174 	 	 464 	 	 51 	 	 939 	 	 1117 	 	 91 
  46 	 	 80 	 	 619 	 	 76 	 	 3160 	 	 3276 	 	 75 
  47 	 	 500 	 	 746 	 	 5 	 	 2336 	 	 2426 	 	 90 
  48 	 	 958 	 	 275 	 	 50 	 	 2204 	 	 2285 	 	 66 
  49 	 	 988 	 	 9 	 	 16 	 	 790 	 	 959 	 	 59 
  50 	 	 477 	 	 246 	 	 31 	 	 286 	 	 393 	 	 55 
 